c This is an instance of the exact track of PACE 2020 Challenge, see https://pacechallenge.org/2020/ 
c TYPE: biology 
c ORIGIN: www.genome.jp/kegg/ 
c DESCRIPTION: nan 
p tdp 46 63
1 26
1 9
1 2
1 6
1 5
1 4
39 41
39 37
41 25
41 22
41 38
41 24
41 19
41 40
41 18
41 21
41 23
41 20
44 45
44 42
44 46
44 36
14 15
14 9
15 37
15 16
2 31
2 32
2 36
2 29
2 33
2 30
2 3
2 34
17 23
17 24
17 19
17 22
17 18
17 21
17 20
17 16
17 25
9 12
9 11
9 10
9 3
9 13
28 36
28 27
28 35
4 8
4 5
4 6
4 3
8 5
8 6
38 37
37 29
37 40
42 43
5 6
3 7
